171966 -1 360659 9709415 177176 0.99
172174 -1 499322 13337834 178922 1
172448 -1 324513 9175348 179830 0.98
172366 -1 310929 8412686 178530 1
171862 -1 435074 11642538 178602 0.97
172344 -1 397818 10651713 178030 0.99
172118 -1 345972 9383096 177194 1
172502 -1 359668 9814948 178990 0.98
172386 -1 312735 8597475 178462 0.99
172428 -1 411193 11483563 179148 1
